
Gurobi 8.1.1 (linux64, Python) logging started Tue Sep  3 13:48:30 2019

Academic license - for non-commercial use only
Warning for adding constraints: zero or small (< 1e-13) coefficients, ignored
Optimize a model with 556 rows, 221991 columns and 1317624 nonzeros
Coefficient statistics:
  Matrix range     [2e-01, 5e+00]
  Objective range  [2e-16, 6e+00]
  Bounds range     [0e+00, 0e+00]
  RHS range        [2e-02, 1e-01]

Concurrent LP optimizer: dual simplex and barrier
Showing barrier log only...

Presolve time: 0.67s
Presolved: 556 rows, 221991 columns, 1317624 nonzeros

Ordering time: 0.00s

Barrier statistics:
 AA' NZ     : 3.251e+04
 Factor NZ  : 3.645e+04 (roughly 90 MBytes of memory)
 Factor Ops : 2.532e+06 (less than 1 second per iteration)
 Threads    : 1

                  Objective                Residual
Iter       Primal          Dual         Primal    Dual     Compl     Time
   0   2.29162011e+04  0.00000000e+00  2.02e+03 0.00e+00  2.36e-01     1s
   1   4.56025977e+02 -1.44963201e+00  6.53e+01 9.77e-15  6.72e-03     1s
   2   2.07323343e+00 -1.43915286e+00  2.08e-01 1.15e-14  3.07e-05     1s
   3   8.79686225e-01 -5.24505238e-01  3.96e-02 2.38e-14  8.20e-06     1s
   4   5.77111798e-01  5.51420080e-02  5.58e-03 2.18e-14  2.53e-06     1s
   5   4.67387609e-01  8.02869042e-02  2.69e-03 2.13e-14  1.82e-06     1s
   6   3.74947058e-01  1.07198008e-01  1.10e-03 2.00e-14  1.24e-06     2s
   7   2.97080104e-01  2.25396364e-01  3.46e-04 2.31e-14  3.30e-07     2s
   8   2.60635434e-01  2.47451366e-01  6.77e-05 1.75e-14  6.06e-08     2s
   9   2.50015060e-01  2.49989329e-01  1.39e-09 2.04e-14  1.16e-10     2s
  10   2.50000015e-01  2.49999989e-01  2.01e-13 2.33e-14  1.16e-13     2s
  11   2.50000000e-01  2.50000000e-01  1.29e-14 1.93e-14  1.16e-16     2s

Barrier solved model in 11 iterations and 2.06 seconds
Optimal objective 2.50000000e-01

Crossover log...

       0 DPushes remaining with DInf 1.3320424e+02                 2s

   44701 PPushes remaining with PInf 0.0000000e+00                 2s
       0 PPushes remaining with PInf 0.0000000e+00                 3s

  Push phase complete: Pinf 0.0000000e+00, Dinf 1.2211809e-11      3s

Iteration    Objective       Primal Inf.    Dual Inf.      Time
   45117    2.5000000e-01   0.000000e+00   0.000000e+00      3s

Solved with barrier
Solved in 45117 iterations and 2.99 seconds
Optimal objective  2.500000000e-01

Gurobi 8.1.1 (linux64, Python) logging started Tue Sep  3 13:48:51 2019

Academic license - for non-commercial use only
Warning for adding constraints: zero or small (< 1e-13) coefficients, ignored
Optimize a model with 556 rows, 221991 columns and 1317624 nonzeros
Coefficient statistics:
  Matrix range     [2e-01, 5e+00]
  Objective range  [2e-16, 6e+00]
  Bounds range     [0e+00, 0e+00]
  RHS range        [2e-02, 1e-01]

Concurrent LP optimizer: dual simplex and barrier
Showing barrier log only...

Presolve time: 0.73s
Presolved: 556 rows, 221991 columns, 1317624 nonzeros

Ordering time: 0.00s

Barrier statistics:
 AA' NZ     : 3.251e+04
 Factor NZ  : 3.645e+04 (roughly 90 MBytes of memory)
 Factor Ops : 2.532e+06 (less than 1 second per iteration)
 Threads    : 1

                  Objective                Residual
Iter       Primal          Dual         Primal    Dual     Compl     Time
   0   2.29162011e+04  0.00000000e+00  2.02e+03 0.00e+00  2.36e-01     1s
   1   4.56025977e+02 -1.44963201e+00  6.53e+01 9.77e-15  6.72e-03     1s
   2   2.07323343e+00 -1.43915286e+00  2.08e-01 1.15e-14  3.07e-05     1s
   3   8.79686225e-01 -5.24505238e-01  3.96e-02 2.38e-14  8.20e-06     1s
   4   5.77111798e-01  5.51420080e-02  5.58e-03 2.18e-14  2.53e-06     1s
   5   4.67387609e-01  8.02869042e-02  2.69e-03 2.13e-14  1.82e-06     2s
   6   3.74947058e-01  1.07198008e-01  1.10e-03 2.00e-14  1.24e-06     2s
   7   2.97080104e-01  2.25396364e-01  3.46e-04 2.31e-14  3.30e-07     2s
   8   2.60635434e-01  2.47451366e-01  6.77e-05 1.75e-14  6.06e-08     2s
   9   2.50015060e-01  2.49989329e-01  1.39e-09 2.04e-14  1.16e-10     2s
  10   2.50000015e-01  2.49999989e-01  2.01e-13 2.33e-14  1.16e-13     2s
  11   2.50000000e-01  2.50000000e-01  1.29e-14 1.93e-14  1.16e-16     2s

Barrier solved model in 11 iterations and 2.14 seconds
Optimal objective 2.50000000e-01

Crossover log...

       0 DPushes remaining with DInf 1.3320424e+02                 2s

   44701 PPushes remaining with PInf 0.0000000e+00                 2s
       0 PPushes remaining with PInf 0.0000000e+00                 3s

  Push phase complete: Pinf 0.0000000e+00, Dinf 1.2211809e-11      3s

Iteration    Objective       Primal Inf.    Dual Inf.      Time
   45117    2.5000000e-01   0.000000e+00   0.000000e+00      3s

Solved with barrier
Solved in 45117 iterations and 3.06 seconds
Optimal objective  2.500000000e-01

Gurobi 8.1.1 (linux64, Python) logging started Tue Sep  3 13:52:06 2019

Academic license - for non-commercial use only
Warning for adding constraints: zero or small (< 1e-13) coefficients, ignored
Optimize a model with 556 rows, 221991 columns and 1317624 nonzeros
Coefficient statistics:
  Matrix range     [2e-01, 5e+00]
  Objective range  [2e-16, 6e+00]
  Bounds range     [0e+00, 0e+00]
  RHS range        [2e-02, 1e-01]

Concurrent LP optimizer: dual simplex and barrier
Showing barrier log only...

Presolve time: 0.66s
Presolved: 556 rows, 221991 columns, 1317624 nonzeros

Ordering time: 0.00s

Barrier statistics:
 AA' NZ     : 3.251e+04
 Factor NZ  : 3.645e+04 (roughly 90 MBytes of memory)
 Factor Ops : 2.532e+06 (less than 1 second per iteration)
 Threads    : 1

                  Objective                Residual
Iter       Primal          Dual         Primal    Dual     Compl     Time
   0   2.29162011e+04  1.00107527e+00  2.02e+03 1.03e+00  3.46e-01     1s
   1   3.33687824e+02  4.56184500e+00  4.27e+01 1.60e-14  8.23e-03     1s
   2   4.57470246e+00  4.53537239e+00  4.78e-01 1.60e-13  1.08e-04     1s
   3   1.24737602e+00  3.52372203e+00  3.22e-02 1.35e-13  1.66e-05     1s
   4   1.10451958e+00  2.38855907e+00  7.10e-03 1.15e-13  6.88e-06     1s
   5   1.18193163e+00  1.99934258e+00  6.71e-04 1.04e-13  3.77e-06     1s
   6   1.31986966e+00  1.88907700e+00  1.18e-04 1.07e-13  2.58e-06     1s
   7   1.34660943e+00  1.65982741e+00  9.21e-05 9.77e-14  1.42e-06     2s
   8   1.45437941e+00  1.61784772e+00  1.81e-05 1.01e-13  7.38e-07     2s
   9   1.48177249e+00  1.57827301e+00  5.56e-06 1.07e-13  4.35e-07     2s
  10   1.49510318e+00  1.54207671e+00  7.70e-07 8.66e-14  2.12e-07     2s
  11   1.49816568e+00  1.51210833e+00  2.00e-07 1.08e-13  6.28e-08     2s
  12   1.49858586e+00  1.50627101e+00  1.46e-07 1.02e-13  3.46e-08     2s
  13   1.49978304e+00  1.50168324e+00  6.20e-09 1.14e-13  8.56e-09     2s
  14   1.49999349e+00  1.50006905e+00  2.12e-15 1.07e-13  3.40e-10     2s
  15   1.49999999e+00  1.50000007e+00  9.52e-15 1.08e-13  3.40e-13     2s
  16   1.50000000e+00  1.50000000e+00  6.34e-15 1.00e-13  3.40e-16     3s

Barrier solved model in 16 iterations and 2.54 seconds
Optimal objective 1.50000000e+00

Crossover log...

       0 DPushes remaining with DInf 7.4961718e+02                 3s

  116474 PPushes remaining with PInf 0.0000000e+00                 3s
       0 PPushes remaining with PInf 0.0000000e+00                 4s

  Push phase complete: Pinf 0.0000000e+00, Dinf 9.0688654e-12      4s

Iteration    Objective       Primal Inf.    Dual Inf.      Time
  116815    1.5000000e+00   0.000000e+00   0.000000e+00      4s

Solved with barrier
Solved in 116815 iterations and 4.27 seconds
Optimal objective  1.500000000e+00

Gurobi 8.1.1 (linux64, Python) logging started Tue Sep  3 13:54:36 2019

Academic license - for non-commercial use only
Warning for adding constraints: zero or small (< 1e-13) coefficients, ignored
Optimize a model with 316 rows, 78771 columns and 466334 nonzeros
Coefficient statistics:
  Matrix range     [2e-01, 4e+00]
  Objective range  [5e-32, 2e+01]
  Bounds range     [0e+00, 0e+00]
  RHS range        [2e-02, 1e-01]

Concurrent LP optimizer: dual simplex and barrier
Showing barrier log only...

Presolve time: 0.22s
Presolved: 316 rows, 78771 columns, 466334 nonzeros

Ordering time: 0.00s

Barrier statistics:
 AA' NZ     : 1.486e+04
 Factor NZ  : 1.705e+04 (roughly 30 MBytes of memory)
 Factor Ops : 9.978e+05 (less than 1 second per iteration)
 Threads    : 1

                  Objective                Residual
Iter       Primal          Dual         Primal    Dual     Compl     Time
   0   3.67641467e+04  4.34666667e+00  7.16e+02 1.20e+01  2.54e+00     0s
   1   4.00792508e+02  3.02992423e+01  1.06e+01 1.31e-13  4.04e-02     0s
   2   8.34301543e+00  2.96356121e+01  1.13e-01 1.27e-13  7.44e-04     0s
   3   5.41807503e+00  1.76562440e+01  8.62e-03 1.09e-13  1.81e-04     0s
   4   6.33694946e+00  1.03193587e+01  9.83e-06 1.35e-13  5.06e-05     0s
   5   7.00904609e+00  9.92249202e+00  1.83e-06 1.35e-13  3.70e-05     0s
   6   7.23627037e+00  8.43582124e+00  1.06e-06 1.46e-13  1.52e-05     0s
   7   7.96481436e+00  8.33199465e+00  5.18e-12 1.56e-13  4.66e-06     1s
   8   8.06705798e+00  8.32678518e+00  3.33e-12 1.92e-13  3.30e-06     1s
   9   8.15275427e+00  8.29928686e+00  1.84e-12 1.28e-13  1.86e-06     1s
  10   8.27519512e+00  8.29847145e+00  1.33e-13 1.32e-13  2.95e-07     1s
  11   8.29050206e+00  8.29285321e+00  5.33e-14 1.35e-13  2.98e-08     1s
  12   8.29190639e+00  8.29250859e+00  1.37e-12 1.10e-13  7.64e-09     1s
  13   8.29217089e+00  8.29241066e+00  1.76e-11 1.56e-13  3.04e-09     1s
  14   8.29227903e+00  8.29239782e+00  1.44e-11 1.39e-13  1.51e-09     1s
  15   8.29232294e+00  8.29234794e+00  1.76e-11 1.78e-13  3.17e-10     1s
  16   8.29233201e+00  8.29233363e+00  1.80e-11 1.56e-13  2.06e-11     1s
  17   8.29233333e+00  8.29233333e+00  1.77e-11 1.42e-13  1.26e-14     1s

Barrier solved model in 17 iterations and 0.89 seconds
Optimal objective 8.29233333e+00

Crossover log...

     245 DPushes remaining with DInf 0.0000000e+00                 1s
       0 DPushes remaining with DInf 8.0025219e+02                 1s

      22 PPushes remaining with PInf 0.0000000e+00                 1s
       0 PPushes remaining with PInf 0.0000000e+00                 1s

  Push phase complete: Pinf 0.0000000e+00, Dinf 2.8176628e-12      1s

Iteration    Objective       Primal Inf.    Dual Inf.      Time
     265    8.2923333e+00   0.000000e+00   0.000000e+00      1s

Solved with barrier
Solved in 265 iterations and 0.99 seconds
Optimal objective  8.292333333e+00

Gurobi 8.1.1 (linux64, Python) logging started Tue Sep  3 13:54:50 2019

Academic license - for non-commercial use only
Warning for adding constraints: zero or small (< 1e-13) coefficients, ignored
Optimize a model with 316 rows, 78771 columns and 466334 nonzeros
Coefficient statistics:
  Matrix range     [2e-01, 4e+00]
  Objective range  [5e-32, 2e+01]
  Bounds range     [0e+00, 0e+00]
  RHS range        [2e-02, 1e-01]

Concurrent LP optimizer: dual simplex and barrier
Showing barrier log only...

Presolve time: 0.22s
Presolved: 316 rows, 78771 columns, 466334 nonzeros

Ordering time: 0.00s

Barrier statistics:
 AA' NZ     : 1.486e+04
 Factor NZ  : 1.705e+04 (roughly 30 MBytes of memory)
 Factor Ops : 9.978e+05 (less than 1 second per iteration)
 Threads    : 1

                  Objective                Residual
Iter       Primal          Dual         Primal    Dual     Compl     Time
   0   3.67641467e+04  0.00000000e+00  7.16e+02 0.00e+00  1.07e+00     0s
   1   1.33238600e+03 -6.87783582e+00  3.50e+01 4.97e-14  5.03e-02     0s
   2   5.36622598e+00 -6.80254316e+00  7.00e-02 5.62e-13  2.21e-04     0s
   3   2.29592548e+00 -7.52809839e-01  5.93e-03 4.32e-13  4.09e-05     0s
   4   1.26456078e+00  3.16911149e-01  2.91e-04 4.17e-13  1.21e-05     0s
   5   7.17209778e-01  3.16733031e-01  4.25e-05 4.52e-13  5.09e-06     0s
   6   4.99436080e-01  3.71267645e-01  1.32e-06 3.47e-13  1.63e-06     0s
   7   4.30631613e-01  3.98814702e-01  1.31e-07 4.98e-13  4.04e-07     0s
   8   4.05656441e-01  3.99350837e-01  1.20e-08 4.28e-13  8.01e-08     1s
   9   4.01405299e-01  4.00816693e-01  1.36e-10 4.49e-13  7.47e-09     1s
  10   4.01026346e-01  4.00981491e-01  2.56e-12 4.76e-13  5.69e-10     1s
  11   4.01002887e-01  4.00999114e-01  7.86e-11 4.15e-13  4.79e-11     1s
  12   4.01000001e-01  4.00999999e-01  1.73e-12 5.56e-13  2.02e-14     1s

Barrier solved model in 12 iterations and 0.62 seconds
Optimal objective 4.01000001e-01

Crossover log...

     246 DPushes remaining with DInf 0.0000000e+00                 1s
       0 DPushes remaining with DInf 2.9959793e+03                 1s

      22 PPushes remaining with PInf 0.0000000e+00                 1s
       0 PPushes remaining with PInf 0.0000000e+00                 1s

  Push phase complete: Pinf 0.0000000e+00, Dinf 2.8696490e-12      1s

Iteration    Objective       Primal Inf.    Dual Inf.      Time
     266    4.0100000e-01   0.000000e+00   0.000000e+00      1s

Solved with barrier
Solved in 266 iterations and 0.71 seconds
Optimal objective  4.010000000e-01

Gurobi 8.1.1 (linux64, Python) logging started Tue Sep  3 13:55:35 2019

Academic license - for non-commercial use only
Warning for adding constraints: zero or small (< 1e-13) coefficients, ignored
Optimize a model with 316 rows, 78771 columns and 466334 nonzeros
Coefficient statistics:
  Matrix range     [2e-01, 4e+00]
  Objective range  [5e-32, 2e+01]
  Bounds range     [0e+00, 0e+00]
  RHS range        [2e-02, 1e-01]

Concurrent LP optimizer: dual simplex and barrier
Showing barrier log only...

Presolve time: 0.21s
Presolved: 316 rows, 78771 columns, 466334 nonzeros

Ordering time: 0.00s

Barrier statistics:
 AA' NZ     : 1.486e+04
 Factor NZ  : 1.705e+04 (roughly 30 MBytes of memory)
 Factor Ops : 9.978e+05 (less than 1 second per iteration)
 Threads    : 1

                  Objective                Residual
Iter       Primal          Dual         Primal    Dual     Compl     Time
   0   3.67641467e+04  0.00000000e+00  7.16e+02 0.00e+00  1.07e+00     0s
   1   1.33238600e+03 -6.87783582e+00  3.50e+01 4.97e-14  5.03e-02     0s
   2   5.36622598e+00 -6.80254316e+00  7.00e-02 5.62e-13  2.21e-04     0s
   3   2.29592548e+00 -7.52809839e-01  5.93e-03 4.32e-13  4.09e-05     0s
   4   1.26456078e+00  3.16911149e-01  2.91e-04 4.17e-13  1.21e-05     0s
   5   7.17209778e-01  3.16733031e-01  4.25e-05 4.52e-13  5.09e-06     0s
   6   4.99436080e-01  3.71267645e-01  1.32e-06 3.47e-13  1.63e-06     0s
   7   4.30631613e-01  3.98814702e-01  1.31e-07 4.98e-13  4.04e-07     1s
   8   4.05656441e-01  3.99350837e-01  1.20e-08 4.28e-13  8.01e-08     1s
   9   4.01405299e-01  4.00816693e-01  1.36e-10 4.49e-13  7.47e-09     1s
  10   4.01026346e-01  4.00981491e-01  2.56e-12 4.76e-13  5.69e-10     1s
  11   4.01002887e-01  4.00999114e-01  7.86e-11 4.15e-13  4.79e-11     1s
  12   4.01000001e-01  4.00999999e-01  1.73e-12 5.56e-13  2.02e-14     1s

Barrier solved model in 12 iterations and 0.69 seconds
Optimal objective 4.01000001e-01

Crossover log...

     246 DPushes remaining with DInf 0.0000000e+00                 1s
       0 DPushes remaining with DInf 2.9959793e+03                 1s

      22 PPushes remaining with PInf 0.0000000e+00                 1s
       0 PPushes remaining with PInf 0.0000000e+00                 1s

  Push phase complete: Pinf 0.0000000e+00, Dinf 2.8696490e-12      1s

Iteration    Objective       Primal Inf.    Dual Inf.      Time
     266    4.0100000e-01   0.000000e+00   0.000000e+00      1s

Solved with barrier
Solved in 266 iterations and 0.78 seconds
Optimal objective  4.010000000e-01

Gurobi 8.1.1 (linux64, Python) logging started Tue Sep  3 13:55:51 2019

Academic license - for non-commercial use only
Optimize a model with 74 rows, 78771 columns and 315084 nonzeros
Coefficient statistics:
  Matrix range     [1e+00, 1e+00]
  Objective range  [5e-32, 2e+01]
  Bounds range     [0e+00, 0e+00]
  RHS range        [2e-02, 1e-01]

Concurrent LP optimizer: dual simplex and barrier
Showing barrier log only...

Presolve removed 3 rows and 0 columns
Presolve time: 0.18s
Presolved: 71 rows, 78771 columns, 301631 nonzeros

Ordering time: 0.00s

Barrier statistics:
 AA' NZ     : 1.760e+03
 Factor NZ  : 2.556e+03 (roughly 30 MBytes of memory)
 Factor Ops : 1.218e+05 (less than 1 second per iteration)
 Threads    : 1

                  Objective                Residual
Iter       Primal          Dual         Primal    Dual     Compl     Time
   0   3.67641467e+04  0.00000000e+00  7.16e+02 0.00e+00  1.07e+00     0s
   1   1.33060735e+03 -6.87885528e+00  3.49e+01 7.11e-15  5.03e-02     0s
   2   2.42115996e+00 -6.82506563e+00  1.08e-03 1.07e-14  1.18e-04     0s
   3   1.09281378e+00  2.63908321e-01  1.21e-15 1.07e-14  1.05e-05     0s
   4   4.39841390e-01  2.59744345e-01  2.91e-15 7.11e-15  2.29e-06     0s
   5   3.74334871e-01  3.25506394e-01  1.24e-15 7.11e-15  6.20e-07     0s
   6   3.46706633e-01  3.37677784e-01  1.34e-14 7.11e-15  1.15e-07     0s
   7   3.40116131e-01  3.39974442e-01  2.63e-14 7.11e-15  1.80e-09     0s
   8   3.40000001e-01  3.40000000e-01  3.79e-14 1.07e-14  9.51e-15     0s

Barrier solved model in 8 iterations and 0.36 seconds
Optimal objective 3.40000001e-01

Crossover log...

      54 DPushes remaining with DInf 0.0000000e+00                 0s
       0 DPushes remaining with DInf 3.2196468e-15                 0s

    6100 PPushes remaining with PInf 0.0000000e+00                 0s
       0 PPushes remaining with PInf 0.0000000e+00                 0s

  Push phase complete: Pinf 0.0000000e+00, Dinf 4.7739590e-15      0s

Iteration    Objective       Primal Inf.    Dual Inf.      Time
    6157    3.4000000e-01   0.000000e+00   0.000000e+00      0s

Solved with barrier
Solved in 6157 iterations and 0.42 seconds
Optimal objective  3.400000000e-01
